[runlim] version:		2.0.0rc12
[runlim] host:			ap-Precision-7550
[runlim] time limit:		311040000 seconds
[runlim] real time limit:	600 seconds
[runlim] space limit:		14000 MB
[runlim] argv[0]:		python3
[runlim] argv[1]:		cp_no.py
[runlim] argv[2]:		TUD916.2
[runlim] start:			Wed Mar 25 06:40:54 2026
[runlim] child:			76514
--- Building model for 916 variables ---
--- Solving with CP Optimizer (Integer Mode) ---
 ! --------------------------------------------------- CP Optimizer 22.1.1.0 --
 ! Minimization problem - 916 variables, 5173 constraints
 ! LogVerbosity         = Terse
 ! Initial process time : 0.04s (0.04s extraction + 0.00s propagation)
 !  . Log search space  : 185.8 (before), 185.8 (after)
 !  . Memory usage      : 2.6 MB (before), 2.6 MB (after)
 ! Using parallel search with 12 workers.
 ! ----------------------------------------------------------------------------
 !          Best Branches  Non-fixed    W       Branch decision
                        0        916                 -
 + New bound is 0
                        0         84                 -
 + New bound is 48
 *            48       59  0.05s        1      (gap is 0.00%)
 ! ----------------------------------------------------------------------------
 ! Search completed, 1 solution found.
 ! Best objective         : 48 (optimal - effective tol. is 0)
 ! Best bound             : 48
 ! ----------------------------------------------------------------------------
 ! Number of branches     : 804
 ! Number of fails        : 228
 ! Total memory usage     : 43.1 MB (42.5 MB CP Optimizer + 0.6 MB Concert)
 ! Time spent in solve    : 0.05s (0.02s engine + 0.04s extraction)
 ! Search speed (br. / s) : 40200.0
 ! ----------------------------------------------------------------------------

==============================
OPTIMAL SOLUTION:
Label list: [100, 338, 750, 512, 100, 338, 170, 408, 792, 554, 114, 352, 142, 380, 666, 428, 736, 498, 778, 540, 722, 484, 666, 428, 778, 540, 736, 498, 708, 470, 156, 394, 16, 254, 652, 414, 792, 554, 792, 554, 736, 498, 666, 428, 764, 526, 16, 254, 142, 380, 58, 296, 16, 254, 170, 408, 792, 554, 128, 366, 694, 456, 240, 478, 142, 380, 16, 254, 792, 554, 16, 254, 16, 254, 750, 512, 86, 324, 30, 268, 722, 484, 16, 254, 750, 512, 16, 254, 722, 484, 114, 352, 156, 394, 708, 470, 16, 254, 240, 478, 652, 414, 44, 282, 680, 442, 16, 254, 58, 296, 86, 324, 72, 310, 792, 554, 16, 254, 114, 352, 16, 254, 142, 380, 792, 554, 652, 414, 86, 324, 778, 540, 708, 470, 16, 254, 16, 254, 736, 498, 100, 338, 750, 512, 240, 478, 666, 428, 142, 380, 694, 456, 16, 254, 652, 414, 100, 338, 652, 414, 764, 526, 72, 310, 30, 268, 792, 554, 792, 554, 694, 456, 694, 456, 156, 394, 156, 394, 666, 428, 708, 470, 694, 456, 170, 408, 792, 554, 694, 456, 86, 324, 128, 366, 240, 478, 72, 310, 58, 296, 30, 268, 792, 554, 680, 442, 764, 526, 240, 478, 86, 324, 44, 282, 792, 554, 736, 498, 156, 394, 114, 352, 16, 254, 170, 408, 16, 254, 792, 554, 16, 254, 170, 408, 666, 428, 736, 498, 16, 254, 100, 338, 268, 30, 792, 554, 128, 366, 666, 428, 240, 478, 680, 442, 708, 470, 16, 254, 114, 352, 114, 352, 680, 442, 30, 268, 142, 380, 792, 554, 86, 324, 170, 408, 708, 470, 792, 554, 30, 268, 484, 722, 100, 338, 792, 554, 764, 526, 694, 456, 170, 408, 666, 428, 16, 254, 58, 296, 156, 394, 792, 554, 44, 282, 778, 540, 58, 296, 100, 338, 16, 254, 58, 296, 44, 282, 156, 394, 708, 470, 792, 554, 16, 254, 240, 478, 30, 268, 652, 414, 114, 352, 694, 456, 170, 408, 44, 282, 792, 554, 170, 408, 100, 338, 708, 470, 170, 408, 694, 456, 708, 470, 792, 554, 58, 296, 792, 554, 736, 498, 128, 366, 44, 282, 86, 324, 792, 554, 156, 394, 16, 254, 792, 554, 666, 428, 114, 352, 16, 254, 128, 366, 44, 282, 170, 408, 722, 484, 792, 554, 128, 366, 792, 554, 750, 512, 16, 254, 792, 554, 30, 268, 666, 428, 142, 380, 156, 394, 142, 380, 170, 408, 16, 254, 792, 554, 722, 484, 44, 282, 100, 338, 16, 254, 792, 554, 240, 478, 708, 470, 16, 254, 240, 478, 44, 282, 708, 470, 680, 442, 778, 540, 128, 366, 792, 554, 666, 428, 792, 554, 16, 254, 792, 554, 792, 554, 722, 484, 764, 526, 128, 366, 16, 254, 156, 394, 128, 366, 792, 554, 652, 414, 16, 254, 240, 478, 16, 254, 58, 296, 114, 352, 764, 526, 792, 554, 708, 470, 240, 478, 666, 428, 16, 254, 44, 282, 16, 254, 722, 484, 156, 394, 30, 268, 30, 268, 142, 380, 764, 526, 694, 456, 750, 512, 680, 442, 86, 324, 58, 296, 708, 470, 680, 442, 680, 442, 694, 456, 114, 352, 240, 478, 30, 268, 16, 254, 30, 268, 240, 478, 44, 282, 30, 268, 16, 254, 72, 310, 792, 554, 694, 456, 16, 254, 100, 338, 72, 310, 16, 254, 156, 394, 100, 338, 16, 254, 58, 296, 86, 324, 792, 554, 750, 512, 72, 310, 778, 540, 16, 254, 722, 484, 156, 394, 156, 394, 778, 540, 666, 428, 680, 442, 142, 380, 72, 310, 708, 470, 736, 498, 16, 254, 128, 366, 722, 484, 16, 254, 750, 512, 722, 484, 30, 268, 694, 456, 778, 540, 666, 428, 114, 352, 778, 540, 100, 338, 100, 338, 16, 254, 240, 478, 16, 254, 722, 484, 30, 268, 16, 254, 44, 282, 142, 380, 86, 324, 170, 408, 114, 352, 128, 366, 100, 338, 722, 484, 114, 352, 128, 366, 170, 408, 86, 324, 142, 380, 100, 338, 680, 442, 652, 414, 778, 540, 240, 478, 680, 442, 666, 428, 30, 268, 666, 428, 722, 484, 792, 554, 708, 470, 792, 554, 764, 526, 16, 254, 44, 282, 652, 414, 792, 554, 666, 428, 240, 478, 792, 554, 100, 338, 792, 554, 680, 442, 156, 394, 128, 366, 240, 478, 652, 414, 170, 408, 72, 310, 666, 428, 792, 554, 156, 394, 708, 470, 86, 324, 16, 254, 694, 456, 764, 526, 736, 498, 652, 414, 30, 268, 764, 526, 736, 498, 142, 380, 666, 428, 736, 498, 652, 414, 128, 366, 58, 296, 128, 366, 16, 254, 16, 254, 142, 380, 778, 540, 708, 470, 72, 310, 680, 442, 764, 526, 680, 442, 778, 540, 750, 512, 58, 296, 750, 512, 792, 554, 268, 30, 680, 442, 652, 414, 792, 554, 142, 380, 58, 296, 240, 478, 764, 526, 792, 554, 666, 428, 44, 282, 722, 484, 652, 414, 792, 554, 764, 526, 44, 282, 44, 282, 72, 310, 170, 408, 86, 324, 680, 442, 170, 408, 30, 268, 694, 456, 778, 540, 142, 380, 792, 554, 86, 324, 680, 442, 142, 380, 778, 540, 16, 254, 16, 254, 30, 268, 736, 498, 750, 512, 30, 268, 58, 296, 750, 512, 142, 380, 16, 254, 72, 310, 170, 408, 170, 408, 750, 512, 114, 352, 764, 526, 792, 554, 16, 254, 792, 554, 778, 540, 694, 456, 142, 380, 680, 442, 750, 512, 680, 442, 778, 540, 16, 254, 240, 478, 44, 282, 708, 470]
Number of labels used: 48
Specific labels: [16, 30, 44, 58, 72, 86, 100, 114, 128, 142, 156, 170, 240, 254, 268, 282, 296, 310, 324, 338, 352, 366, 380, 394, 408, 414, 428, 442, 456, 470, 478, 484, 498, 512, 526, 540, 554, 652, 666, 680, 694, 708, 722, 736, 750, 764, 778, 792]
==============================
Total time: 0.22s
Memory used: 31.51 MB
[runlim] end:			Wed Mar 25 06:40:54 2026
[runlim] status:		ok
[runlim] result:		0
[runlim] children:		2
[runlim] processes:		3
[runlim] real:			0.30 seconds
[runlim] time:			0.19 seconds
[runlim] space:			53 MB
[runlim] load:			7.46 maximum
[runlim] samples:		3
